54
75
60	21
59	15
58	18
57	15
56	18
55	10
54	25
53	20
52	29
51	22
50	24
49	12
48	34
47	15
46	20
45	17
44	19
43	28
42	16
41	16
40	16
39	21
38	21
37	21
36	20
35	18
34	15
33	13
32	10
31	18
30	21
29	14
28	20
27	15
26	16
25	15
24	23
23	11
22	12
21	28
20	19
19	15
18	14
17	13
16	17
15	15
14	23
13	13
12	19
11	21
10	22
9	28
8	26
7	13
